param T := 20;
param C := 4;
param S := 2;
param P1 := 1000;
param P2 := 500;
param P3 := 100;
param P4 := 50;
param P5 := 40;
param P6 := 10;

param N := 500;

param FjoldiNemenda :=
1 23
2 43
3 55
4 53
;

param Courses :=
1 2 3
1 3 2
1 4 1
2 3 1
2 4 1
3 4 0
2 1 3
3 1 2
4 1 1
3 2 1
4 2 1
4 3 0
;

set FixedCourses :=
1 1
;

set NotAllowed :=
3 1
;

end;